3 
4  46 
5  01 16 29 36 44 51 
6  01 08 16 23 31 38 46 53 
7  01 08 16 23 31 38 46 53 
8  01 08 16 23 31 38 46 53 
9  01 08 16 23 35 42 50 57 
10  05 12 20 27 35 42 50 57 
11  05 12 20 27 35 42 50 57 
12  05 12 20 27 35 42 50 57 
13  05 12 20 27 35 42 50 57 
14  05 12 20 27 35 46 54 
15  01 08 16 24 31 39 46 54 
16  01 09 16 24 31 39 46 54 
17  01 09 16 24 31 40 46 55 
18  01 10 16 25 31 39 50 57 
19  05 12 20 27 37 47 55 
20  03 17 31 46 
21  01 16 31 46 57 
22  12 27 42 
23  02 
0 
